c turning on binary mode checking
c parsing input formula with 202048 variables and 780975 clauses
c finished parsing, read 19035877 bytes from proof file
c detected empty clause; start verification via backward checking
c 18155 of 780975 clauses in core                            
c 27075 of 494693 lemmas in core using 204481 resolution steps
c 0 RAT lemmas in core; 1601 redundant literals in core lemmas
s VERIFIED
c verification time: 2.438 seconds
